proyfinal/src/viki/013/andrea/andrea-localstore/experimentInOfficeAgust.take6/worker_11/e99c92c8-474c-4d6c-99f4-4dccd3997609.als.cnf.out
Reading from standard input... Use '--help' for help.
============================[ Problem Statistics ]=============================
|                                                                             |
|  Number of variables:         87638                                         |
|  Number of clauses:          161767                                         |
|  Parse time:                   0.04 s                                       |
|                                                                             |
============================[ Search Statistics ]==============================
| Conflicts |          ORIGINAL         |          LEARNT          | Progress |
|           |    Vars  Clauses Literals |    Limit  Clauses Lit/Cl |          |
===============================================================================
|       100 |   62435   105596   263279 |    38718      100     12 | 28.758 % |
|       250 |   62435   105596   263279 |    42590      250     21 | 28.758 % |
|       475 |   62435   105596   263279 |    46849      475     56 | 28.758 % |
|       812 |   62435   105596   263279 |    51534      812     50 | 28.758 % |
|      1318 |   62415   105552   263189 |    56687     1316     40 | 28.781 % |
|      2077 |   62415   105476   263013 |    62356     2070     45 | 28.781 % |
|      3216 |   62415   105476   263013 |    68592     3209     52 | 28.781 % |
|      4924 |   62415   105476   263013 |    75451     4917     57 | 28.781 % |
|      7486 |   62415   105476   263013 |    82996     7479     60 | 28.781 % |
|     11330 |   62415   105476   263013 |    91296    11323     63 | 28.781 % |
|     17096 |   60638   105257   262525 |   100425    16145     69 | 30.809 % |
===============================================================================
restarts              : 63
conflicts             : 17865          (7708 /sec)
decisions             : 51392          (0.00 % random) (22174 /sec)
propagations          : 23629199       (10195344 /sec)
conflict literals     : 1239974        (56.91 % deleted)
Memory used           : 26.55 MB
CPU time              : 2.31765 s

UNSATISFIABLE
